
Gurobi 8.1.1 (linux64, Python) logging started Wed May 22 21:18:22 2019

Academic license - for non-commercial use only
Parameter Threads unchanged
   Value: 0  Min: 0  Max: 1024  Default: 0
Changed value of parameter Crossover to 0
   Prev: -1  Min: -1  Max: 5  Default: -1
Changed value of parameter Method to 2
   Prev: -1  Min: -1  Max: 5  Default: -1

Gurobi 8.1.1 (linux64, Python) logging started Wed May 22 21:19:02 2019

Academic license - for non-commercial use only
Parameter Threads unchanged
   Value: 0  Min: 0  Max: 1024  Default: 0
Changed value of parameter Crossover to 0
   Prev: -1  Min: -1  Max: 5  Default: -1
Changed value of parameter Method to 2
   Prev: -1  Min: -1  Max: 5  Default: -1

Gurobi 8.1.1 (linux64, Python) logging started Wed May 22 21:19:47 2019

Academic license - for non-commercial use only
Parameter Threads unchanged
   Value: 0  Min: 0  Max: 1024  Default: 0
Changed value of parameter Crossover to 0
   Prev: -1  Min: -1  Max: 5  Default: -1
Changed value of parameter Method to 2
   Prev: -1  Min: -1  Max: 5  Default: -1
Warning for adding constraints: zero or small (< 1e-13) coefficients, ignored
Optimize a model with 74304 rows, 34149 columns and 2537407210 nonzeros
Coefficient statistics:
  Matrix range     [1e-13, 5e-05]
  Objective range  [1e+00, 1e+00]
  Bounds range     [1e+00, 1e+00]
  RHS range        [7e-05, 7e-05]
Presolve removed 0 rows and 0 columns (presolve time = 540s) ...
Presolve removed 0 rows and 0 columns (presolve time = 611s) ...
Presolve removed 0 rows and 0 columns (presolve time = 1932s) ...
Presolve removed 0 rows and 0 columns (presolve time = 2604s) ...
Presolve removed 0 rows and 0 columns (presolve time = 3010s) ...
Presolve time: 3119.02s
Presolved: 34149 rows, 108453 columns, 2537441359 nonzeros
Ordering time: 0.00s

Barrier statistics:
 AA' NZ     : 5.831e+08
 Factor NZ  : 5.831e+08 (roughly 5.0 GBytes of memory)
 Factor Ops : 1.327e+13 (roughly 200 seconds per iteration)
 Threads    : 16

                  Objective                Residual
Iter       Primal          Dual         Primal    Dual     Compl     Time
   0   4.44000810e+05  0.00000000e+00  0.00e+00 0.00e+00  5.91e+00  6044s
   1   1.51081878e+05  1.21691568e+04  0.00e+00 6.96e-02  1.16e+00  8513s
   2   5.90091995e+04  1.62664377e+04  0.00e+00 2.18e-02  3.13e-01  10995s
   3   3.71719765e+04  1.87879619e+04  0.00e+00 6.84e-03  1.32e-01  13486s
   4   2.58566808e+04  2.02848719e+04  0.00e+00 1.96e-03  3.97e-02  15995s
   5   2.27382853e+04  2.08965994e+04  0.00e+00 8.74e-04  1.31e-02  18508s
   6   2.20602482e+04  2.11558424e+04  0.00e+00 3.93e-04  6.42e-03  21011s
   7   2.17837952e+04  2.12814231e+04  0.00e+00 1.81e-04  3.56e-03  23521s
   8   2.16295908e+04  2.13454294e+04  0.00e+00 8.68e-05  2.01e-03  26046s
   9   2.15469346e+04  2.13772590e+04  0.00e+00 4.66e-05  1.20e-03  28568s
  10   2.14882485e+04  2.13984123e+04  0.00e+00 2.10e-05  6.34e-04  31124s
  11   2.14462507e+04  2.14088745e+04  0.00e+00 1.05e-05  2.64e-04  33653s
  12   2.14314865e+04  2.14146155e+04  0.00e+00 5.44e-06  1.19e-04  36278s
  13   2.14260537e+04  2.14174111e+04  0.00e+00 3.19e-06  6.13e-05  38844s
  14   2.14229165e+04  2.14200331e+04  0.00e+00 1.06e-06  2.05e-05  41460s
  15   2.14218158e+04  2.14210528e+04  0.00e+00 2.80e-07  5.42e-06  44088s
  16   2.14216343e+04  2.14212564e+04  0.00e+00 1.47e-07  2.69e-06  46602s
  17   2.14215205e+04  2.14215017e+04  1.75e-07 1.58e-11  1.31e-07  49258s
  18   2.14215199e+04  2.14215049e+04  3.86e-07 1.10e-11  1.05e-07  51966s
  19   2.14215198e+04  2.14215062e+04  2.67e-07 1.28e-11  9.58e-08  54672s
  20   2.14215198e+04  2.14215062e+04  4.06e-07 9.45e-12  9.55e-08  57204s
  21   2.14215198e+04  2.14215062e+04  3.39e-07 1.28e-11  9.51e-08  59910s
  22   2.14215197e+04  2.14215062e+04  7.14e-07 1.88e-11  9.46e-08  62472s
  23   2.14215197e+04  2.14215062e+04  6.36e-07 1.74e-11  9.42e-08  65038s
  24   2.14215197e+04  2.14215062e+04  1.20e-06 1.79e-11  9.39e-08  67661s
  25   2.14215195e+04  2.14215062e+04  2.20e-06 1.89e-11  9.33e-08  70254s
  26   2.14215196e+04  2.14215062e+04  2.59e-06 1.83e-11  9.25e-08  72800s
  27   2.14215188e+04  2.14215062e+04  3.95e-06 1.82e-11  8.81e-08  75337s
  28   2.14215182e+04  2.14215062e+04  9.07e-06 1.95e-11  8.56e-08  77896s
  29   2.14215178e+04  2.14215062e+04  1.48e-05 1.46e-11  8.15e-08  80430s
  30   2.14215175e+04  2.14215062e+04  1.42e-05 1.48e-11  8.07e-08  82980s
  31   2.14215173e+04  2.14215062e+04  1.52e-05 1.69e-11  7.90e-08  85514s
  32   2.14215173e+04  2.14215062e+04  1.33e-05 1.74e-11  7.87e-08  88028s
  33   2.14215154e+04  2.14215062e+04  1.52e-05 1.97e-11  6.92e-08  90543s
  34   2.14215129e+04  2.14215062e+04  2.21e-05 2.01e-11  5.64e-08  93071s
  35   2.14215123e+04  2.14215062e+04  2.03e-05 1.63e-11  4.50e-08  95582s
  36   2.14215117e+04  2.14215062e+04  1.98e-05 1.64e-11  3.38e-08  98106s
  37   2.14215107e+04  2.14215062e+04  2.92e-05 1.26e-11  2.75e-08  100625s
  38   2.14215100e+04  2.14215062e+04  2.70e-05 1.80e-11  2.48e-08  103140s
  39   2.14215098e+04  2.14215062e+04  3.88e-05 1.33e-11  2.25e-08  105653s
  40   2.14215100e+04  2.14215062e+04  3.95e-05 1.27e-11  2.13e-08  108167s
  41   2.14215097e+04  2.14215062e+04  5.25e-05 1.52e-11  1.93e-08  110709s
  42   2.14215085e+04  2.14215062e+04  5.32e-05 1.32e-11  1.58e-08  113245s
  43   2.14215087e+04  2.14215062e+04  6.01e-05 1.39e-11  1.58e-08  115786s
  44   2.14215082e+04  2.14215062e+04  6.30e-05 1.50e-11  1.35e-08  118393s
  45   2.14215076e+04  2.14215062e+04  7.46e-05 1.98e-11  2.45e-09  120972s
  46   2.14215074e+04  2.14215062e+04  6.86e-05 1.85e-11  2.17e-09  123555s
  47   2.14215056e+04  2.14215063e+04  6.70e-05 1.79e-11  5.38e-10  126130s
  48   2.14215058e+04  2.14215063e+04  5.50e-05 1.91e-11  3.85e-10  128730s
  49   2.14215063e+04  2.14215063e+04  6.42e-05 1.56e-11  1.83e-10  131312s
  50   2.14215069e+04  2.14215063e+04  3.82e-05 2.54e-11  6.08e-11  133877s
  51   2.14215069e+04  2.14215063e+04  3.86e-05 2.56e-11  5.94e-11  136435s
  52   2.14215064e+04  2.14215063e+04  3.45e-05 2.52e-11  4.91e-11  139048s
  53   2.14215063e+04  2.14215063e+04  2.98e-05 2.59e-11  3.86e-11  141597s
  54   2.14215069e+04  2.14215063e+04  3.95e-05 3.18e-11  1.83e-11  144162s
  55   2.14215068e+04  2.14215063e+04  3.92e-05 2.65e-11  1.79e-11  146692s

Barrier performed 55 iterations in 146691.93 seconds
Sub-optimal termination - objective 2.14215198e+04


Gurobi 8.1.1 (linux64, Python) logging started Sat May 25 22:19:37 2019

Academic license - for non-commercial use only
Parameter Threads unchanged
   Value: 0  Min: 0  Max: 1024  Default: 0
Changed value of parameter Crossover to 0
   Prev: -1  Min: -1  Max: 5  Default: -1
Changed value of parameter Method to 2
   Prev: -1  Min: -1  Max: 5  Default: -1

Gurobi 8.1.1 (linux64, Python) logging started Sat May 25 22:23:15 2019

Academic license - for non-commercial use only
Parameter Threads unchanged
   Value: 0  Min: 0  Max: 1024  Default: 0
Changed value of parameter Crossover to 0
   Prev: -1  Min: -1  Max: 5  Default: -1
Changed value of parameter Method to 2
   Prev: -1  Min: -1  Max: 5  Default: -1
Warning for adding constraints: zero or small (< 1e-13) coefficients, ignored
Optimize a model with 74304 rows, 35091 columns and 2607401538 nonzeros
Coefficient statistics:
  Matrix range     [1e-13, 5e-05]
  Objective range  [6e-02, 1e+00]
  Bounds range     [1e+00, 1e+00]
  RHS range        [7e-05, 7e-05]
Presolve removed 0 rows and 0 columns (presolve time = 86s) ...
Presolve removed 0 rows and 0 columns (presolve time = 150s) ...
Presolve removed 0 rows and 0 columns (presolve time = 283s) ...
Presolve removed 0 rows and 0 columns (presolve time = 642s) ...
Presolve removed 0 rows and 0 columns (presolve time = 683s) ...
Presolve time: 746.15s
Presolved: 35091 rows, 109395 columns, 2607436629 nonzeros
Ordering time: 0.00s

Barrier statistics:
 AA' NZ     : 6.157e+08
 Factor NZ  : 6.157e+08 (roughly 5.0 GBytes of memory)
 Factor Ops : 1.440e+13 (roughly 170 seconds per iteration)
 Threads    : 24

                  Objective                Residual
Iter       Primal          Dual         Primal    Dual     Compl     Time
   0   5.20234755e+05  0.00000000e+00  0.00e+00 0.00e+00  6.86e+00  2809s
   1   1.86085723e+05  9.32830951e+03  0.00e+00 1.81e-01  1.60e+00  4253s
   2   7.42653117e+04  1.38558085e+04  0.00e+00 3.93e-02  4.54e-01  5901s
   3   3.54285545e+04  1.75656434e+04  0.00e+00 1.19e-02  1.28e-01  7486s
   4   2.75625216e+04  1.91683790e+04  0.00e+00 3.67e-03  5.94e-02  8935s
   5   2.34873755e+04  2.00586989e+04  0.00e+00 1.05e-03  2.41e-02  10338s
   6   2.19814006e+04  2.03495483e+04  0.00e+00 4.67e-04  1.14e-02  11776s
   7   2.12554361e+04  2.04990241e+04  0.00e+00 2.13e-04  5.30e-03  13051s
   8   2.10518041e+04  2.05605004e+04  0.00e+00 1.34e-04  3.44e-03  14321s
   9   2.09410960e+04  2.06036444e+04  0.00e+00 8.26e-05  2.36e-03  15746s
  10   2.08745224e+04  2.06211571e+04  0.00e+00 6.29e-05  1.77e-03  17299s
  11   2.07744448e+04  2.06480532e+04  0.00e+00 3.52e-05  8.86e-04  18981s
  12   2.07442850e+04  2.06621284e+04  0.00e+00 2.32e-05  5.76e-04  20474s
  13   2.07260720e+04  2.06702296e+04  0.00e+00 1.67e-05  3.92e-04  21883s
  14   2.07174422e+04  2.06750265e+04  0.00e+00 1.28e-05  2.98e-04  23323s
  15   2.07096280e+04  2.06800288e+04  0.00e+00 8.93e-06  2.08e-04  24549s
  16   2.07007824e+04  2.06847775e+04  0.00e+00 5.38e-06  1.13e-04  25931s
  17   2.06976826e+04  2.06874254e+04  0.00e+00 3.41e-06  7.22e-05  27219s
  18   2.06952061e+04  2.06890673e+04  0.00e+00 2.28e-06  4.33e-05  28542s
  19   2.06937372e+04  2.06905509e+04  0.00e+00 1.20e-06  2.25e-05  29864s
  20   2.06929890e+04  2.06912322e+04  0.00e+00 7.25e-07  1.24e-05  31134s
  21   2.06927105e+04  2.06917685e+04  0.00e+00 3.41e-07  6.64e-06  32363s
  22   2.06924939e+04  2.06922146e+04  0.00e+00 2.73e-08  1.95e-06  33701s
  23   2.06922868e+04  2.06922630e+04  0.00e+00 9.37e-10  1.66e-07  35102s
  24   2.06922703e+04  2.06922679e+04  0.00e+00 1.56e-11  1.66e-08  36579s
  25   2.06922703e+04  2.06922684e+04  8.20e-08 1.36e-11  1.30e-08  37975s
  26   2.06922703e+04  2.06922684e+04  2.13e-07 1.30e-11  1.30e-08  39167s
  27   2.06922703e+04  2.06922684e+04  3.09e-07 1.32e-11  1.29e-08  40405s
  28   2.06922703e+04  2.06922685e+04  7.29e-07 2.13e-11  1.26e-08  41663s
  29   2.06922703e+04  2.06922685e+04  1.10e-06 2.08e-11  1.26e-08  42887s
  30   2.06922703e+04  2.06922685e+04  1.49e-06 2.09e-11  1.25e-08  44101s
  31   2.06922703e+04  2.06922685e+04  1.70e-06 1.91e-11  1.25e-08  45291s
  32   2.06922703e+04  2.06922685e+04  1.76e-06 1.75e-11  1.24e-08  46515s
  33   2.06922703e+04  2.06922685e+04  1.66e-06 1.98e-11  1.21e-08  47773s
  34   2.06922702e+04  2.06922685e+04  2.04e-06 1.68e-11  1.17e-08  48995s
  35   2.06922701e+04  2.06922685e+04  2.50e-06 1.66e-11  1.10e-08  50207s
  36   2.06922694e+04  2.06922685e+04  4.70e-06 1.65e-11  5.89e-09  51460s
  37   2.06922694e+04  2.06922685e+04  5.28e-06 1.57e-11  5.75e-09  52656s
  38   2.06922692e+04  2.06922685e+04  6.30e-06 1.31e-11  5.17e-09  53910s
  39   2.06922689e+04  2.06922685e+04  7.88e-06 1.72e-11  3.67e-09  55195s
  40   2.06922686e+04  2.06922685e+04  1.20e-05 1.79e-11  2.23e-09  56420s
  41   2.06922685e+04  2.06922685e+04  1.19e-05 2.14e-11  2.24e-12  57611s
  42   2.06922685e+04  2.06922685e+04  1.12e-05 2.11e-11  5.70e-15  58807s
  43   2.06922687e+04  2.06922685e+04  1.35e-05 2.20e-11  1.95e-15  59977s
  44   2.06922687e+04  2.06922685e+04  1.60e-05 5.44e-12  1.34e-15  61185s
  45   2.06922683e+04  2.06922685e+04  2.35e-05 4.54e-12  1.66e-14  62414s
  46   2.06922687e+04  2.06922685e+04  2.06e-05 1.06e-11  7.25e-16  63655s
  47   2.06922688e+04  2.06922685e+04  2.03e-05 9.75e-12  8.14e-16  64843s
  48   2.06922687e+04  2.06922685e+04  8.96e-06 4.52e-12  5.06e-16  66076s
  49   2.06922690e+04  2.06922685e+04  1.89e-05 4.82e-12  9.89e-17  67256s

Barrier performed 49 iterations in 67255.78 seconds
Sub-optimal termination - objective 2.06922703e+04

Parameter Threads unchanged
   Value: 0  Min: 0  Max: 1024  Default: 0
Changed value of parameter Crossover to 0
   Prev: -1  Min: -1  Max: 5  Default: -1
Changed value of parameter Method to 2
   Prev: -1  Min: -1  Max: 5  Default: -1
Warning for adding constraints: zero or small (< 1e-13) coefficients, ignored
Optimize a model with 74304 rows, 23317 columns and 1732546182 nonzeros
Coefficient statistics:
  Matrix range     [1e-13, 1e-05]
  Objective range  [2e-01, 1e+00]
  Bounds range     [1e+00, 1e+00]
  RHS range        [9e-09, 2e-02]
Presolve removed 0 rows and 0 columns (presolve time = 55s) ...
Presolve removed 0 rows and 0 columns (presolve time = 99s) ...
Presolve removed 0 rows and 0 columns (presolve time = 187s) ...
Presolve removed 0 rows and 0 columns (presolve time = 352s) ...
Presolve removed 0 rows and 0 columns (presolve time = 373s) ...
Presolve time: 410.98s
Presolved: 23317 rows, 97621 columns, 1732569499 nonzeros
Ordering time: 0.00s

Barrier statistics:
 AA' NZ     : 2.718e+08
 Factor NZ  : 2.719e+08 (roughly 2.2 GBytes of memory)
 Factor Ops : 4.226e+12 (roughly 60 seconds per iteration)
 Threads    : 24

                  Objective                Residual
Iter       Primal          Dual         Primal    Dual     Compl     Time
   0   2.43327704e+06  1.25887399e+04  0.00e+00 5.80e+00  8.68e+02  1006s
   1   2.27174223e+06  1.29715806e+04  0.00e+00 5.45e+00  5.16e+01  1458s
   2   9.00854074e+05  1.18771789e+04  0.00e+00 1.77e+00  1.36e+01  1907s
   3   2.89963560e+05  1.10716116e+04  0.00e+00 4.53e-01  3.25e+00  2362s
   4   6.13841728e+04  1.09564408e+04  0.00e+00 7.33e-02  4.70e-01  2836s
   5   2.04999261e+04  1.12791096e+04  0.00e+00 8.79e-03  7.78e-02  3311s
   6   1.61069405e+04  1.15476858e+04  0.00e+00 3.50e-03  3.81e-02  3787s
   7   1.36581495e+04  1.18023581e+04  0.00e+00 7.71e-04  1.54e-02  4273s
   8   1.28636360e+04  1.18701994e+04  0.00e+00 4.64e-04  8.25e-03  4728s
   9   1.22033016e+04  1.19581996e+04  0.00e+00 1.44e-04  2.04e-03  5206s
  10   1.20819502e+04  1.20052887e+04  0.00e+00 3.64e-05  6.37e-04  5700s
  11   1.20423026e+04  1.20246940e+04  0.00e+00 8.20e-06  1.46e-04  6190s
  12   1.20363347e+04  1.20315033e+04  0.00e+00 1.55e-06  4.01e-05  6678s
  13   1.20354157e+04  1.20326989e+04  0.00e+00 6.41e-07  2.25e-05  7165s
  14   1.20347794e+04  1.20334736e+04  0.00e+00 9.13e-08  1.08e-05  7674s
  15   1.20338539e+04  1.20335748e+04  0.00e+00 3.38e-08  2.31e-06  8196s
  16   1.20336809e+04  1.20336362e+04  0.00e+00 5.19e-09  3.71e-07  8745s
  17   1.20336805e+04  1.20336506e+04  0.00e+00 1.06e-09  2.47e-07  9406s
  18   1.20336803e+04  1.20336538e+04  0.00e+00 3.67e-10  2.17e-07  9929s
  19   1.20336804e+04  1.20336541e+04  2.30e-07 3.11e-10  2.14e-07  10430s
  20   1.20336801e+04  1.20336542e+04  5.09e-07 2.92e-10  2.11e-07  10920s
  21   1.20336802e+04  1.20336544e+04  9.77e-07 2.52e-10  2.06e-07  11394s
  22   1.20336808e+04  1.20336546e+04  1.46e-06 1.92e-10  1.95e-07  11875s
  23   1.20336801e+04  1.20336547e+04  1.80e-06 1.74e-10  1.88e-07  12339s
  24   1.20336778e+04  1.20336549e+04  2.55e-06 9.58e-11  1.79e-07  12811s
  25   1.20336777e+04  1.20336550e+04  3.90e-06 6.65e-11  1.66e-07  13273s
  26   1.20336785e+04  1.20336551e+04  4.45e-06 6.34e-11  1.63e-07  13748s
  27   1.20336781e+04  1.20336551e+04  5.04e-06 7.20e-11  1.63e-07  14214s
  28   1.20336768e+04  1.20336551e+04  5.56e-06 6.12e-11  1.62e-07  14690s
  29   1.20336730e+04  1.20336552e+04  7.27e-06 4.90e-11  1.44e-07  15165s
  30   1.20336753e+04  1.20336554e+04  9.44e-06 3.63e-11  1.28e-07  15643s
  31   1.20336710e+04  1.20336554e+04  1.05e-05 3.85e-11  1.23e-07  16115s
  32   1.20336711e+04  1.20336554e+04  1.04e-05 3.52e-11  1.13e-07  16583s
  33   1.20336706e+04  1.20336554e+04  1.14e-05 3.52e-11  1.06e-07  17053s
  34   1.20336789e+04  1.20336555e+04  1.35e-05 2.79e-11  1.00e-07  17531s
  35   1.20336754e+04  1.20336555e+04  1.33e-05 2.53e-11  1.00e-07  17995s
  36   1.20336808e+04  1.20336555e+04  1.66e-05 2.34e-11  9.15e-08  18476s
  37   1.20336772e+04  1.20336555e+04  1.35e-05 3.05e-11  8.56e-08  18940s
  38   1.20336838e+04  1.20336555e+04  1.74e-05 2.62e-11  8.56e-08  19418s
  39   1.20336742e+04  1.20336555e+04  1.26e-05 2.70e-11  8.55e-08  19894s
  40   1.20336765e+04  1.20336555e+04  1.60e-05 2.14e-11  8.54e-08  20382s
  41   1.20336939e+04  1.20336556e+04  2.84e-05 9.89e-12  8.14e-08  20885s
  42   1.20336814e+04  1.20336556e+04  2.54e-05 1.39e-11  7.34e-08  21393s
  43   1.20336728e+04  1.20336556e+04  2.11e-05 1.52e-11  6.88e-08  21888s
  44   1.20336750e+04  1.20336556e+04  2.96e-05 1.26e-11  6.66e-08  22382s
  45   1.20336766e+04  1.20336556e+04  3.37e-05 2.12e-11  6.59e-08  22869s
  46   1.20336673e+04  1.20336555e+04  3.64e-05 1.15e-11  5.62e-08  23367s
  47   1.20336646e+04  1.20336556e+04  3.41e-05 1.59e-11  4.32e-08  23855s
  48   1.20336612e+04  1.20336556e+04  3.18e-05 1.28e-11  4.23e-08  24367s
  49   1.20336549e+04  1.20336556e+04  2.80e-05 1.24e-11  4.22e-08  24855s
  50   1.20336570e+04  1.20336556e+04  3.94e-05 1.05e-11  4.18e-08  25344s
  51   1.20336591e+04  1.20336556e+04  3.92e-05 1.17e-11  4.16e-08  25825s
  52   1.20336647e+04  1.20336557e+04  3.08e-05 1.34e-11  3.48e-08  26331s
  53   1.20336660e+04  1.20336557e+04  3.23e-05 1.44e-11  3.26e-08  26814s
  54   1.20336635e+04  1.20336557e+04  3.22e-05 1.31e-11  3.23e-08  27298s
  55   1.20336629e+04  1.20336557e+04  3.31e-05 1.16e-11  3.12e-08  27789s
  56   1.20336654e+04  1.20336557e+04  3.70e-05 1.26e-11  3.02e-08  28275s
  57   1.20336619e+04  1.20336557e+04  3.51e-05 1.11e-11  2.84e-08  28754s
  58   1.20336617e+04  1.20336557e+04  3.23e-05 1.43e-11  2.72e-08  29252s
  59   1.20336627e+04  1.20336557e+04  4.47e-05 1.42e-11  2.67e-08  29737s
  60   1.20336583e+04  1.20336557e+04  3.41e-05 1.33e-11  2.19e-08  30200s
  61   1.20336598e+04  1.20336557e+04  3.59e-05 1.06e-11  2.17e-08  30690s
  62   1.20336540e+04  1.20336557e+04  4.60e-05 9.66e-12  2.09e-08  31201s
  63   1.20336814e+04  1.20336557e+04  3.74e-05 9.83e-12  1.85e-08  31712s
  64   1.20336810e+04  1.20336557e+04  3.35e-05 1.41e-11  1.80e-08  32205s
  65   1.20336785e+04  1.20336557e+04  3.30e-05 1.13e-11  1.80e-08  32685s
  66   1.20336863e+04  1.20336557e+04  3.44e-05 1.42e-11  1.71e-08  33159s
  67   1.20336782e+04  1.20336557e+04  2.94e-05 1.64e-11  1.66e-08  33646s
  68   1.20336824e+04  1.20336557e+04  2.62e-05 1.38e-11  1.66e-08  34129s
  69   1.20336732e+04  1.20336557e+04  3.06e-05 1.18e-11  1.58e-08  34614s
  70   1.20336705e+04  1.20336558e+04  2.84e-05 1.22e-11  1.40e-08  35114s
  71   1.20336583e+04  1.20336558e+04  3.74e-05 1.72e-11  1.31e-08  35612s
  72   1.20336613e+04  1.20336558e+04  3.12e-05 1.44e-11  1.31e-08  36083s
  73   1.20336774e+04  1.20336558e+04  4.66e-05 1.57e-11  1.15e-08  36619s
  74   1.20336756e+04  1.20336558e+04  3.83e-05 1.27e-11  1.10e-08  37114s
  75   1.20336800e+04  1.20336558e+04  3.72e-05 1.46e-11  1.09e-08  37605s
  76   1.20336808e+04  1.20336558e+04  3.85e-05 1.14e-11  1.01e-08  38099s
  77   1.20336808e+04  1.20336558e+04  4.07e-05 1.84e-11  1.00e-08  38585s
  78   1.20336958e+04  1.20336558e+04  7.59e-05 1.71e-11  9.94e-09  39068s
  79   1.20336926e+04  1.20336558e+04  7.40e-05 1.34e-11  9.55e-09  39565s
  80   1.20336891e+04  1.20336558e+04  7.20e-05 1.48e-11  9.29e-09  40048s
  81   1.20336915e+04  1.20336558e+04  7.63e-05 9.21e-12  8.19e-09  40549s
  82   1.20336876e+04  1.20336558e+04  7.38e-05 1.31e-11  7.98e-09  41041s
  83   1.20336923e+04  1.20336558e+04  7.31e-05 1.42e-11  7.97e-09  41523s
  84   1.20336914e+04  1.20336558e+04  7.05e-05 1.24e-11  7.94e-09  42020s
  85   1.20337119e+04  1.20336558e+04  6.81e-05 1.66e-11  7.74e-09  42512s
  86   1.20337150e+04  1.20336558e+04  9.50e-05 1.28e-11  7.71e-09  43016s
  87   1.20337191e+04  1.20336558e+04  9.58e-05 1.39e-11  7.70e-09  43501s
  88   1.20337221e+04  1.20336558e+04  9.82e-05 1.24e-11  7.58e-09  43993s
  89   1.20337191e+04  1.20336558e+04  9.73e-05 1.32e-11  7.44e-09  44475s
  90   1.20337132e+04  1.20336558e+04  9.16e-05 1.40e-11  7.32e-09  44955s
  91   1.20337107e+04  1.20336558e+04  8.98e-05 1.99e-11  7.13e-09  45454s
  92   1.20337111e+04  1.20336558e+04  8.94e-05 1.84e-11  7.07e-09  45947s
  93   1.20337111e+04  1.20336558e+04  8.91e-05 1.67e-11  7.05e-09  46430s
  94   1.20337120e+04  1.20336558e+04  9.00e-05 1.56e-11  7.05e-09  46907s
  95   1.20337162e+04  1.20336558e+04  9.12e-05 1.41e-11  7.05e-09  47402s

Barrier performed 95 iterations in 47401.55 seconds
Sub-optimal termination - objective 1.20336805e+04

Parameter Threads unchanged
   Value: 0  Min: 0  Max: 1024  Default: 0
Changed value of parameter Crossover to 0
   Prev: -1  Min: -1  Max: 5  Default: -1
Changed value of parameter Method to 2
   Prev: -1  Min: -1  Max: 5  Default: -1
Warning for adding constraints: zero or small (< 1e-13) coefficients, ignored
Optimize a model with 74304 rows, 57100 columns and 4242757036 nonzeros
Coefficient statistics:
  Matrix range     [1e-13, 3e-06]
  Objective range  [1e+00, 1e+00]
  Bounds range     [1e+00, 1e+00]
  RHS range        [2e-08, 1e-02]
Presolve removed 0 rows and 0 columns (presolve time = 175s) ...
Presolve removed 0 rows and 0 columns (presolve time = 250s) ...
Presolve removed 0 rows and 0 columns (presolve time = 488s) ...
Presolve removed 0 rows and 0 columns (presolve time = 1127s) ...
Presolve removed 37152 rows and 0 columns (presolve time = 1225s) ...
Presolve removed 37152 rows and 0 columns
Presolve time: 1233.56s
Presolved: 37152 rows, 94252 columns, 2121415199 nonzeros
Ordering time: 0.00s

Barrier statistics:
 AA' NZ     : 6.901e+08
 Factor NZ  : 6.902e+08 (roughly 6.0 GBytes of memory)
 Factor Ops : 1.709e+13 (roughly 140 seconds per iteration)
 Threads    : 24

                  Objective                Residual
Iter       Primal          Dual         Primal    Dual     Compl     Time
   0   1.72803497e+09  1.31909816e+07  6.43e+02 3.42e-07  2.30e+05  3094s
   1   1.45200582e+06  1.31753435e+07  5.27e-01 5.82e-07  2.59e+02  4405s
   2   3.52792226e+05  4.58329612e+06  1.21e-01 1.84e-06  5.64e+01  5793s
   3   9.81606603e+04  1.24480758e+06  2.69e-02 3.64e-06  1.23e+01  7056s
   4   4.08798935e+04  3.78457549e+05  5.20e-03 3.70e-06  2.56e+00  8285s
   5   2.87834095e+04  1.27390063e+05  4.65e-04 1.89e-06  5.50e-01  9597s
   6   2.84956492e+04  8.00117770e+04  2.67e-04 1.23e-06  2.83e-01  10808s
   7   2.84878950e+04  4.10143947e+04  4.60e-05 7.84e-07  6.74e-02  12123s
   8   2.86485260e+04  3.55345423e+04  3.08e-05 6.90e-07  3.71e-02  13456s
   9   2.88444773e+04  3.28648470e+04  1.86e-05 6.60e-07  2.17e-02  14540s
  10   2.90841894e+04  3.03270491e+04  6.30e-06 9.53e-07  6.70e-03  15887s
  11   2.92068433e+04  2.96006180e+04  3.69e-06 9.26e-07  2.15e-03  17306s
  12   2.93039032e+04  2.94171280e+04  9.49e-07 8.84e-07  6.16e-04  18499s
  13   2.93159228e+04  2.93852708e+04  7.27e-07 8.04e-07  3.80e-04  19575s
  14   2.93270469e+04  2.93728574e+04  5.28e-07 8.98e-07  2.52e-04  20734s
  15   2.93403108e+04  2.93669714e+04  2.77e-07 6.56e-07  1.46e-04  21967s
  16   2.93476081e+04  2.93601096e+04  1.43e-07 8.91e-07  6.87e-05  23246s
  17   2.93508719e+04  2.93584564e+04  8.50e-08 9.44e-07  4.16e-05  24586s
  18   2.93540150e+04  2.93563430e+04  2.87e-08 8.91e-07  1.28e-05  25819s
  19   2.93551830e+04  2.93559614e+04  9.48e-09 1.10e-06  4.28e-06  27078s
  20   2.93554564e+04  2.93558803e+04  5.22e-09 8.01e-07  2.33e-06  28307s
  21   2.93556009e+04  2.93558218e+04  2.96e-09 8.85e-07  1.22e-06  29589s
  22   2.93557794e+04  2.93557963e+04  1.35e-10 9.04e-07  9.19e-08  30869s
  23   2.93557888e+04  2.93557902e+04  6.72e-12 9.90e-07  7.18e-09  32202s
  24   2.93557894e+04  2.93557896e+04  7.31e-13 9.91e-07  1.03e-09  33388s

Barrier solved model in 24 iterations and 33388.07 seconds
Optimal objective 2.93557894e+04

